500 500
313 292 330 212 132 149 294 225 345 337 189 234 335 354 149 355 260 210 194 287
305 222 253 256 189 296 137 345 220 177 300 321 272 244 169 165 220 241 372 134
95465 64824 83490 54272 24948 44104 40278 77625 75900 59649 56700 75114 91120 86376 25181 58575 57200 50610 72168 38458